
Gurobi 9.1.2 (linux64) logging started Tue Mar 29 22:13:05 2022

Changed value of parameter LogFile to abilene_v-WASHng.log
   Prev:   Default: 
Changed value of parameter MIPFocus to 1
   Prev: 0  Min: 0  Max: 3  Default: 0
Changed value of parameter TimeLimit to 600.0
   Prev: inf  Min: 0.0  Max: inf  Default: inf
Warning: variables 0 and 54 have the same name "X[ATLAM5,ATLAng]"
Warning: linear constraint 78 and linear constraint 79 have the same name "weight-constr-t5"
Warning: to let Gurobi read it back, use rlp format
Gurobi Optimizer version 9.1.2 build v9.1.2rc0 (linux64)
Thread count: 32 physical cores, 64 logical processors, using up to 32 threads
Optimize a model with 389 rows, 324 columns and 1086 nonzeros
Model fingerprint: 0x3ea9cb05
Variable types: 72 continuous, 252 integer (252 binary)
Coefficient statistics:
  Matrix range     [1e+00, 1e+06]
  Objective range  [2e-01, 2e-01]
  Bounds range     [1e+00, 5e+05]
  RHS range        [1e+00, 1e+06]
Presolve removed 60 rows and 66 columns
Presolve time: 0.00s
Presolved: 329 rows, 258 columns, 1434 nonzeros
Variable types: 66 continuous, 192 integer (192 binary)

Root relaxation: objective 1.200000e+01, 76 iterations, 0.00 seconds

    Nodes    |    Current Node    |     Objective Bounds      |     Work
 Expl Unexpl |  Obj  Depth IntInf | Incumbent    BestBd   Gap | It/Node Time

     0     0   12.00000    0   13          -   12.00000      -     -    0s
H    0     0                      69.0000000   12.00000  82.6%     -    0s
H    0     0                      38.0000000   12.00000  68.4%     -    0s
     0     0   12.00000    0   13   38.00000   12.00000  68.4%     -    0s
H    0     0                      37.5000000   12.00000  68.0%     -    0s
     0     0   12.00000    0   12   37.50000   12.00000  68.0%     -    0s
H    0     0                      37.3333333   12.00000  67.9%     -    0s
     0     0   12.00000    0   12   37.33333   12.00000  67.9%     -    0s
     0     0   12.00000    0    2   37.33333   12.00000  67.9%     -    0s
     0     0   12.00000    0    6   37.33333   12.00000  67.9%     -    0s
     0     0   12.00000    0    8   37.33333   12.00000  67.9%     -    0s
     0     0   12.00000    0    8   37.33333   12.00000  67.9%     -    0s
     0     2   12.00000    0    8   37.33333   12.00000  67.9%     -    0s
H   85   108                      35.1666667   12.00000  65.9%   9.4    0s
H   88   108                      34.6666667   12.00000  65.4%   9.2    0s
H  114   108                      34.0000000   12.00000  64.7%   8.8    0s
*  779   604              19      14.6666667   12.00000  18.2%   7.4    1s
* 1120   674              30      14.5000011   12.00000  17.2%   7.2    1s
* 2727  1370              33      12.8333333   12.00000  6.49%   7.3    1s
* 3344  1379              18      12.0000016   12.00000  0.00%   7.4    1s

Cutting planes:
  Learned: 1
  Cover: 5
  Implied bound: 4
  MIR: 1
  Flow cover: 5
  Relax-and-lift: 1

Explored 3528 nodes (26425 simplex iterations) in 1.76 seconds
Thread count was 32 (of 64 available processors)

Solution count 10: 12 12.8333 14.5 ... 38

Optimal solution found (tolerance 1.00e-04)
Best objective 1.200000000000e+01, best bound 1.200000000000e+01, gap 0.0000%

Gurobi 9.1.2 (linux64) logging started Tue Mar 29 22:14:32 2022

Changed value of parameter LogFile to abilene_v-WASHng.log
   Prev:   Default: 
Changed value of parameter MIPFocus to 1
   Prev: 0  Min: 0  Max: 3  Default: 0
Changed value of parameter TimeLimit to 600.0
   Prev: inf  Min: 0.0  Max: inf  Default: inf
Warning: variables 0 and 54 have the same name "X[ATLAM5,ATLAng]"
Warning: linear constraint 78 and linear constraint 79 have the same name "weight-constr-t5"
Warning: to let Gurobi read it back, use rlp format
Gurobi Optimizer version 9.1.2 build v9.1.2rc0 (linux64)
Thread count: 32 physical cores, 64 logical processors, using up to 32 threads
Optimize a model with 389 rows, 324 columns and 1086 nonzeros
Model fingerprint: 0x482dd1fd
Variable types: 72 continuous, 252 integer (252 binary)
Coefficient statistics:
  Matrix range     [1e+00, 1e+06]
  Objective range  [2e-01, 2e-01]
  Bounds range     [1e+00, 5e+05]
  RHS range        [1e+00, 1e+06]
Presolve removed 60 rows and 66 columns
Presolve time: 0.00s
Presolved: 329 rows, 258 columns, 1434 nonzeros
Variable types: 66 continuous, 192 integer (192 binary)

Root relaxation: objective 1.200000e+01, 76 iterations, 0.00 seconds

    Nodes    |    Current Node    |     Objective Bounds      |     Work
 Expl Unexpl |  Obj  Depth IntInf | Incumbent    BestBd   Gap | It/Node Time

     0     0   12.00000    0   12          -   12.00000      -     -    0s
H    0     0                      68.3333333   12.00000  82.4%     -    0s
H    0     0                      38.3333333   12.00000  68.7%     -    0s
     0     0   12.00000    0   14   38.33333   12.00000  68.7%     -    0s
H    0     0                      38.3333333   12.00000  68.7%     -    0s
H    0     0                      37.0000000   12.00000  67.6%     -    0s
     0     0   12.00000    0   14   37.00000   12.00000  67.6%     -    0s
H    0     0                      37.0000000   12.00000  67.6%     -    0s
H    0     0                      35.1666667   12.00000  65.9%     -    0s
     0     2   12.00000    0    8   35.16667   12.00000  65.9%     -    0s
H   34    46                      35.0000000   12.00000  65.7%   8.9    0s
H   54    46                      34.8333333   12.00000  65.6%   8.9    0s
H   93    88                      34.6666667   12.00000  65.4%   7.3    0s
H   94    88                      34.3333333   12.00000  65.0%   7.3    0s
H   98    88                      34.1666667   12.00000  64.9%   7.4    0s
H  118    88                      34.0000000   12.00000  64.7%   7.4    0s
*  591   519              21      19.8333460   12.00000  39.5%   6.5    0s

Cutting planes:
  Learned: 43
  Gomory: 1
  Cover: 54
  Implied bound: 38
  Clique: 22
  MIR: 80
  Flow cover: 225
  RLT: 70
  Relax-and-lift: 41

Warning: cleanup yields a better solution due to numeric instability

Explored 7523 nodes (183117 simplex iterations) in 3.33 seconds
Thread count was 32 (of 64 available processors)

Solution count 10: 19.8333 34 34.1667 ... 38.3333
No other solutions better than 19.8333

Optimal solution found (tolerance 1.00e-04)
Best objective 1.966725618325e+01, best bound 1.966725618325e+01, gap 0.0000%
